letting n_nurses=25
letting n_days=7
letting n_shift_types=4
letting max_covers=18
letting t_covers=87
letting covers=[3,18,0,0,0,3,15,0,18,2,1,0,0,0,0,0,15,1,2,0,0,0,0,0,0,1,8,0]
letting prefes=[4,4,4,4,1,1,1,1,1,4,4,4,1,1,1,1,1,4,4,4,4,4,4,4,1,4,4,4,1,4,4,4,1,1,2,3,1,4,4,4,1,1,2,3,1,4,4,4,1,4,4,4,1,4,4,4,1,4,4,4,1,1,1,1,4,4,4,4,1,1,1,1,4,4,4,4,1,4,4,4,4,4,4,4,1,4,4,1,1,1,2,3,4,1,4,3,1,1,2,3,4,1,4,3,1,4,4,1,4,1,4,3,1,1,1,1,1,1,1,3,4,4,1,4,1,1,1,3,4,4,1,4,1,1,1,1,4,4,1,4,4,4,4,4,1,3,2,1,1,4,4,4,1,3,2,1,1,4,4,4,4,4,4,4,1,4,4,4,1,4,1,4,1,1,1,1,4,1,1,3,1,1,1,1,4,1,1,3,1,4,1,4,4,1,1,3,4,4,4,4,1,1,1,1,1,4,4,4,1,1,1,1,1,4,4,4,4,4,4,4,1,4,4,4,1,4,4,4,1,1,1,1,4,4,4,4,1,1,1,1,4,4,4,4,1,4,4,4,4,4,4,4,1,4,4,4,1,1,1,1,4,4,4,4,1,1,1,1,4,4,4,4,1,4,4,4,4,4,4,4,4,4,4,4,1,1,1,3,4,4,4,3,1,1,1,3,4,4,4,3,4,4,4,4,4,4,4,3,1,4,4,1,1,3,1,1,4,4,4,4,1,3,1,1,4,4,4,4,1,4,4,1,4,4,4,4,4,4,4,4,3,3,1,1,4,4,4,4,3,3,1,1,4,4,4,4,4,4,4,4,4,4,4,4,1,4,4,4,1,3,1,1,4,4,4,4,1,3,1,1,4,4,4,4,1,4,4,4,4,4,4,4,1,4,4,1,1,1,1,1,4,4,4,4,1,1,1,1,4,4,4,4,1,4,4,1,4,4,4,4,1,1,4,4,3,1,1,1,4,1,4,3,3,1,1,1,4,1,4,3,1,1,4,4,4,1,4,3,1,4,1,4,1,1,1,1,4,4,1,4,1,1,1,1,4,4,1,4,1,4,1,4,4,4,1,4,1,4,1,4,1,1,1,1,4,4,1,4,1,1,1,1,4,4,1,4,1,4,1,4,4,4,1,4,1,1,4,4,1,1,1,1,4,1,4,4,1,1,1,1,4,1,4,4,1,1,4,4,4,1,4,4,1,1,4,1,1,1,1,1,4,1,4,4,1,1,1,1,4,1,4,4,1,1,4,1,4,1,4,4,1,4,4,4,3,1,1,4,4,4,4,4,3,1,1,4,4,4,4,4,1,4,4,4,4,4,4,4,1,4,4,4,3,1,2,1,4,4,4,4,3,1,2,1,4,4,4,4,1,4,4,4,4,4,4,4,1,4,1,4,3,1,2,1,4,4,1,3,3,1,2,1,4,4,1,3,1,4,1,4,4,4,1,3,1,1,4,4,1,1,1,1,1,4,4,4,1,1,1,1,1,4,4,4,1,1,4,4,1,4,4,4,1,4,4,4,1,3,1,1,4,4,4,4,1,3,1,1,4,4,4,4,1,4,4,4,4,4,4,4]
letting ub =  341
